c THIS FORMULA IS GENERATED BY CNF
c 
c atomics
c C_1_2:1
c X_GS <= 37.89_1_n:2
c X_GS <= 37.89_1_s:3
c X_LA <= 39.63_2_n:4
c X_GS <= 37.89_2_n:5
c X_PI <= 42.09_1_n:6
c X_PI <= 42.09_2_p:7
c X_LA <= 39.63_2_s:8
c X_LA <= 39.63_1_s:9
c C_1_1:10
c X_PI <= 42.09_1_s:11
c X_GS <= 37.89_2_s:12
c X_PI <= 42.09_2_n:13
c X_PI <= 42.09_2_s:14
c X_GS <= 37.89_1_p:15
c C_2_1:16
c X_LA <= 39.63_1_p:17
c X_LA <= 39.63_1_n:18
c X_PI <= 42.09_1_p:19
c X_GS <= 37.89_2_p:20
c X_LA <= 39.63_2_p:21
c C_2_2:22
c end atomics
p cnf 22 181
19 -19 -19 0
19 -19 -6 0
19 -19 11 0
19 6 -19 0
19 6 -6 0
19 6 11 0
19 -11 -19 0
19 -11 -6 0
19 -11 11 0
-6 -19 -19 0
-6 -19 -6 0
-6 -19 11 0
-6 6 -19 0
-6 6 -6 0
-6 6 11 0
-6 -11 -19 0
-6 -11 -6 0
-6 -11 11 0
-11 -19 -19 0
-11 -19 -6 0
-11 -19 11 0
-11 6 -19 0
-11 6 -6 0
-11 6 11 0
-11 -11 -19 0
-11 -11 -6 0
-11 -11 11 0
17 -17 -17 0
17 -17 -18 0
17 -17 9 0
17 18 -17 0
17 18 -18 0
17 18 9 0
17 -9 -17 0
17 -9 -18 0
17 -9 9 0
-18 -17 -17 0
-18 -17 -18 0
-18 -17 9 0
-18 18 -17 0
-18 18 -18 0
-18 18 9 0
-18 -9 -17 0
-18 -9 -18 0
-18 -9 9 0
-9 -17 -17 0
-9 -17 -18 0
-9 -17 9 0
-9 18 -17 0
-9 18 -18 0
-9 18 9 0
-9 -9 -17 0
-9 -9 -18 0
-9 -9 9 0
15 -15 -15 0
15 -15 -2 0
15 -15 3 0
15 2 -15 0
15 2 -2 0
15 2 3 0
15 -3 -15 0
15 -3 -2 0
15 -3 3 0
-2 -15 -15 0
-2 -15 -2 0
-2 -15 3 0
-2 2 -15 0
-2 2 -2 0
-2 2 3 0
-2 -3 -15 0
-2 -3 -2 0
-2 -3 3 0
-3 -15 -15 0
-3 -15 -2 0
-3 -15 3 0
-3 2 -15 0
-3 2 -2 0
-3 2 3 0
-3 -3 -15 0
-3 -3 -2 0
-3 -3 3 0
7 -7 -7 0
7 -7 -13 0
7 -7 14 0
7 13 -7 0
7 13 -13 0
7 13 14 0
7 -14 -7 0
7 -14 -13 0
7 -14 14 0
-13 -7 -7 0
-13 -7 -13 0
-13 -7 14 0
-13 13 -7 0
-13 13 -13 0
-13 13 14 0
-13 -14 -7 0
-13 -14 -13 0
-13 -14 14 0
-14 -7 -7 0
-14 -7 -13 0
-14 -7 14 0
-14 13 -7 0
-14 13 -13 0
-14 13 14 0
-14 -14 -7 0
-14 -14 -13 0
-14 -14 14 0
21 -21 -21 0
21 -21 -4 0
21 -21 8 0
21 4 -21 0
21 4 -4 0
21 4 8 0
21 -8 -21 0
21 -8 -4 0
21 -8 8 0
-4 -21 -21 0
-4 -21 -4 0
-4 -21 8 0
-4 4 -21 0
-4 4 -4 0
-4 4 8 0
-4 -8 -21 0
-4 -8 -4 0
-4 -8 8 0
-8 -21 -21 0
-8 -21 -4 0
-8 -21 8 0
-8 4 -21 0
-8 4 -4 0
-8 4 8 0
-8 -8 -21 0
-8 -8 -4 0
-8 -8 8 0
20 -20 -20 0
20 -20 -5 0
20 -20 12 0
20 5 -20 0
20 5 -5 0
20 5 12 0
20 -12 -20 0
20 -12 -5 0
20 -12 12 0
-5 -20 -20 0
-5 -20 -5 0
-5 -20 12 0
-5 5 -20 0
-5 5 -5 0
-5 5 12 0
-5 -12 -20 0
-5 -12 -5 0
-5 -12 12 0
-12 -20 -20 0
-12 -20 -5 0
-12 -20 12 0
-12 5 -20 0
-12 5 -5 0
-12 5 12 0
-12 -12 -20 0
-12 -12 -5 0
-12 -12 12 0
-11 -9 -3 0
-14 -8 -12 0
6 18 2 0
13 4 5 0
19 17 2 0
7 21 5 0
-19 -10 0
-18 -10 0
-2 -10 0
-7 -16 0
-4 -16 0
-5 -16 0
-19 -1 0
-17 -1 0
-15 -1 0
-7 -22 0
-21 -22 0
-20 -22 0
10 16 0
1 22 0
